p tdp 68 67
14 32
45 52
7 64
63 21
66 57
11 14
35 39
68 60
68 37
6 67
13 48
47 12
62 2
48 55
51 10
19 24
34 67
18 17
41 27
68 54
58 50
62 27
46 23
31 40
49 57
48 54
51 42
8 22
61 9
36 1
29 4
30 19
26 10
53 6
25 58
17 12
15 66
7 46
53 5
19 36
20 27
45 10
39 2
25 43
9 32
38 44
33 65
54 16
44 43
35 56
21 58
11 54
28 59
31 13
12 8
16 23
57 29
58 49
33 8
59 36
56 53
30 20
47 3
42 63
65 14
42 19
33 35
